0 0
4 10
11 10
13 10
16 21
18 31
26 31
27 31
29 31
30 31
32 32
33 32
37 42
38 47
39 50
40 59
41 62
43 74
46 75
47 75
48 76
49 76
50 77
51 80
52 81
54 82
55 84
56 84
57 84
58 85
59 87
61 88
62 89
63 90
65 93
66 93
67 93
68 95
69 95
70 95
75 95
90 116
